80 8
91 84
84 64
30 90
37 8
58 64
86 3
49 8
11 66
55 36
76 84
21 98
79 86
83 68
70 42
71 84
80 61
50 18
10 66
91 67
50 64
83 26
41 48
93 70
28 27
67 57
86 68
61 88
48 92
57 26
82 19
90 7
68 47
9 92
86 83
89 78
21 77
98 67
81 87
53 14
62 57
42 75
11 44
10 50
80 96
85 70
40 94
16 10
17 29
59 49
97 59
26 62
67 1
84 95
38 80
35 90
68 19
88 17
14 43
64 98
3 25
28 92
14 10
87 13
24 61
70 43
71 72
64 51
17 80
36 10
6 34
87 63
44 2
62 93
34 39
17 85
12 41
53 71
100 6
66 57
48 89
554 635
444 534
368 433
363 407
509 585
359 415
535 628
497 559
